certificates/rado_a11_c16_N61.cnf
c Rad2 upper bound instance: x1 + 11*x2 - x3 = 16, interval [1,61]
p cnf 61 440
1 2 7 0
-1 -2 -7 0
1 3 18 0
-1 -3 -18 0
1 4 29 0
-1 -4 -29 0
1 5 40 0
-1 -5 -40 0
1 6 51 0
-1 -6 -51 0
2 8 0
-2 -8 0
2 3 19 0
-2 -3 -19 0
2 4 30 0
-2 -4 -30 0
2 5 41 0
-2 -5 -41 0
2 6 52 0
-2 -6 -52 0
2 3 9 0
-2 -3 -9 0
3 20 0
-3 -20 0
3 4 31 0
-3 -4 -31 0
3 5 42 0
-3 -5 -42 0
3 6 53 0
-3 -6 -53 0
2 4 10 0
-2 -4 -10 0
3 4 21 0
-3 -4 -21 0
4 32 0
-4 -32 0
4 5 43 0
-4 -5 -43 0
4 6 54 0
-4 -6 -54 0
2 5 11 0
-2 -5 -11 0
3 5 22 0
-3 -5 -22 0
4 5 33 0
-4 -5 -33 0
5 44 0
-5 -44 0
5 6 55 0
-5 -6 -55 0
1 6 0
-1 -6 0
2 6 12 0
-2 -6 -12 0
3 6 23 0
-3 -6 -23 0
4 6 34 0
-4 -6 -34 0
5 6 45 0
-5 -6 -45 0
6 56 0
-6 -56 0
2 7 13 0
-2 -7 -13 0
3 7 24 0
-3 -7 -24 0
4 7 35 0
-4 -7 -35 0
5 7 46 0
-5 -7 -46 0
6 7 57 0
-6 -7 -57 0
1 3 8 0
-1 -3 -8 0
2 8 14 0
-2 -8 -14 0
3 8 25 0
-3 -8 -25 0
4 8 36 0
-4 -8 -36 0
5 8 47 0
-5 -8 -47 0
6 8 58 0
-6 -8 -58 0
1 4 9 0
-1 -4 -9 0
2 9 15 0
-2 -9 -15 0
3 9 26 0
-3 -9 -26 0
4 9 37 0
-4 -9 -37 0
5 9 48 0
-5 -9 -48 0
6 9 59 0
-6 -9 -59 0
1 5 10 0
-1 -5 -10 0
2 10 16 0
-2 -10 -16 0
3 10 27 0
-3 -10 -27 0
4 10 38 0
-4 -10 -38 0
5 10 49 0
-5 -10 -49 0
6 10 60 0
-6 -10 -60 0
1 6 11 0
-1 -6 -11 0
2 11 17 0
-2 -11 -17 0
3 11 28 0
-3 -11 -28 0
4 11 39 0
-4 -11 -39 0
5 11 50 0
-5 -11 -50 0
6 11 61 0
-6 -11 -61 0
1 7 12 0
-1 -7 -12 0
2 12 18 0
-2 -12 -18 0
3 12 29 0
-3 -12 -29 0
4 12 40 0
-4 -12 -40 0
5 12 51 0
-5 -12 -51 0
1 8 13 0
-1 -8 -13 0
2 13 19 0
-2 -13 -19 0
3 13 30 0
-3 -13 -30 0
4 13 41 0
-4 -13 -41 0
5 13 52 0
-5 -13 -52 0
1 9 14 0
-1 -9 -14 0
2 14 20 0
-2 -14 -20 0
3 14 31 0
-3 -14 -31 0
4 14 42 0
-4 -14 -42 0
5 14 53 0
-5 -14 -53 0
1 10 15 0
-1 -10 -15 0
2 15 21 0
-2 -15 -21 0
3 15 32 0
-3 -15 -32 0
4 15 43 0
-4 -15 -43 0
5 15 54 0
-5 -15 -54 0
1 11 16 0
-1 -11 -16 0
2 16 22 0
-2 -16 -22 0
3 16 33 0
-3 -16 -33 0
4 16 44 0
-4 -16 -44 0
5 16 55 0
-5 -16 -55 0
1 12 17 0
-1 -12 -17 0
2 17 23 0
-2 -17 -23 0
3 17 34 0
-3 -17 -34 0
4 17 45 0
-4 -17 -45 0
5 17 56 0
-5 -17 -56 0
1 13 18 0
-1 -13 -18 0
2 18 24 0
-2 -18 -24 0
3 18 35 0
-3 -18 -35 0
4 18 46 0
-4 -18 -46 0
5 18 57 0
-5 -18 -57 0
1 14 19 0
-1 -14 -19 0
2 19 25 0
-2 -19 -25 0
3 19 36 0
-3 -19 -36 0
4 19 47 0
-4 -19 -47 0
5 19 58 0
-5 -19 -58 0
1 15 20 0
-1 -15 -20 0
2 20 26 0
-2 -20 -26 0
3 20 37 0
-3 -20 -37 0
4 20 48 0
-4 -20 -48 0
5 20 59 0
-5 -20 -59 0
1 16 21 0
-1 -16 -21 0
2 21 27 0
-2 -21 -27 0
3 21 38 0
-3 -21 -38 0
4 21 49 0
-4 -21 -49 0
5 21 60 0
-5 -21 -60 0
1 17 22 0
-1 -17 -22 0
2 22 28 0
-2 -22 -28 0
3 22 39 0
-3 -22 -39 0
4 22 50 0
-4 -22 -50 0
5 22 61 0
-5 -22 -61 0
1 18 23 0
-1 -18 -23 0
2 23 29 0
-2 -23 -29 0
3 23 40 0
-3 -23 -40 0
4 23 51 0
-4 -23 -51 0
1 19 24 0
-1 -19 -24 0
2 24 30 0
-2 -24 -30 0
3 24 41 0
-3 -24 -41 0
4 24 52 0
-4 -24 -52 0
1 20 25 0
-1 -20 -25 0
2 25 31 0
-2 -25 -31 0
3 25 42 0
-3 -25 -42 0
4 25 53 0
-4 -25 -53 0
1 21 26 0
-1 -21 -26 0
2 26 32 0
-2 -26 -32 0
3 26 43 0
-3 -26 -43 0
4 26 54 0
-4 -26 -54 0
1 22 27 0
-1 -22 -27 0
2 27 33 0
-2 -27 -33 0
3 27 44 0
-3 -27 -44 0
4 27 55 0
-4 -27 -55 0
1 23 28 0
-1 -23 -28 0
2 28 34 0
-2 -28 -34 0
3 28 45 0
-3 -28 -45 0
4 28 56 0
-4 -28 -56 0
1 24 29 0
-1 -24 -29 0
2 29 35 0
-2 -29 -35 0
3 29 46 0
-3 -29 -46 0
4 29 57 0
-4 -29 -57 0
1 25 30 0
-1 -25 -30 0
2 30 36 0
-2 -30 -36 0
3 30 47 0
-3 -30 -47 0
4 30 58 0
-4 -30 -58 0
1 26 31 0
-1 -26 -31 0
2 31 37 0
-2 -31 -37 0
3 31 48 0
-3 -31 -48 0
4 31 59 0
-4 -31 -59 0
1 27 32 0
-1 -27 -32 0
2 32 38 0
-2 -32 -38 0
3 32 49 0
-3 -32 -49 0
4 32 60 0
-4 -32 -60 0
1 28 33 0
-1 -28 -33 0
2 33 39 0
-2 -33 -39 0
3 33 50 0
-3 -33 -50 0
4 33 61 0
-4 -33 -61 0
1 29 34 0
-1 -29 -34 0
2 34 40 0
-2 -34 -40 0
3 34 51 0
-3 -34 -51 0
1 30 35 0
-1 -30 -35 0
2 35 41 0
-2 -35 -41 0
3 35 52 0
-3 -35 -52 0
1 31 36 0
-1 -31 -36 0
2 36 42 0
-2 -36 -42 0
3 36 53 0
-3 -36 -53 0
1 32 37 0
-1 -32 -37 0
2 37 43 0
-2 -37 -43 0
3 37 54 0
-3 -37 -54 0
1 33 38 0
-1 -33 -38 0
2 38 44 0
-2 -38 -44 0
3 38 55 0
-3 -38 -55 0
1 34 39 0
-1 -34 -39 0
2 39 45 0
-2 -39 -45 0
3 39 56 0
-3 -39 -56 0
1 35 40 0
-1 -35 -40 0
2 40 46 0
-2 -40 -46 0
3 40 57 0
-3 -40 -57 0
1 36 41 0
-1 -36 -41 0
2 41 47 0
-2 -41 -47 0
3 41 58 0
-3 -41 -58 0
1 37 42 0
-1 -37 -42 0
2 42 48 0
-2 -42 -48 0
3 42 59 0
-3 -42 -59 0
1 38 43 0
-1 -38 -43 0
2 43 49 0
-2 -43 -49 0
3 43 60 0
-3 -43 -60 0
1 39 44 0
-1 -39 -44 0
2 44 50 0
-2 -44 -50 0
3 44 61 0
-3 -44 -61 0
1 40 45 0
-1 -40 -45 0
2 45 51 0
-2 -45 -51 0
1 41 46 0
-1 -41 -46 0
2 46 52 0
-2 -46 -52 0
1 42 47 0
-1 -42 -47 0
2 47 53 0
-2 -47 -53 0
1 43 48 0
-1 -43 -48 0
2 48 54 0
-2 -48 -54 0
1 44 49 0
-1 -44 -49 0
2 49 55 0
-2 -49 -55 0
1 45 50 0
-1 -45 -50 0
2 50 56 0
-2 -50 -56 0
1 46 51 0
-1 -46 -51 0
2 51 57 0
-2 -51 -57 0
1 47 52 0
-1 -47 -52 0
2 52 58 0
-2 -52 -58 0
1 48 53 0
-1 -48 -53 0
2 53 59 0
-2 -53 -59 0
1 49 54 0
-1 -49 -54 0
2 54 60 0
-2 -54 -60 0
1 50 55 0
-1 -50 -55 0
2 55 61 0
-2 -55 -61 0
1 51 56 0
-1 -51 -56 0
1 52 57 0
-1 -52 -57 0
1 53 58 0
-1 -53 -58 0
1 54 59 0
-1 -54 -59 0
1 55 60 0
-1 -55 -60 0
1 56 61 0
-1 -56 -61 0
