certificates/rado_a11_c16_N61.drat
-56 -61 0
8 -5 56 0
10 56 0
-61 0
56 0
-6 0
1 0
11 0
-51 0
-16 0
15 5 0
d 15 54 5 0
-10 0
2 0
60 0
-8 0
-50 0
-7 0
-5 0
-17 0
-55 0
-54 0
58 0
47 0
57 0
46 0
44 0
0
